NAME : instance_7
COMMENT : Converted from simplified format
TYPE : CVRP
DIMENSION : 6
EDGE_WEIGHT_TYPE : EUC_2D
CAPACITY : 15
NODE_COORD_SECTION
1 0 0
2 3 89
3 75 65
4 42 63
5 81 53
6 51 15
DEMAND_SECTION
1 0
2 7
3 7
4 8
5 1
6 6
DEPOT_SECTION
1
EOF
